c Result of efficient AIG-to-CNF conversion using package CNF
p cnf 271 1006
-2 3 -154 -156 158 0
-2 3 154 156 158 0
2 -158 0
2 -154 156 0
2 -3 0
2 154 -156 0
3 4 -36 0
3 -4 36 0
-3 -4 -36 0
-3 4 36 0
4 -5 35 0
4 5 -35 0
-4 5 35 0
-4 -5 -35 0
5 -209 -241 0
5 -241 -6 0
5 -209 -6 0
-5 209 6 0
-5 241 6 0
-5 209 241 0
6 -210 -242 0
6 -242 -7 0
6 -210 -7 0
-6 210 7 0
-6 242 7 0
-6 210 242 0
7 -211 -243 0
7 -243 -8 0
7 -211 -8 0
-7 211 8 0
-7 243 8 0
-7 211 243 0
8 -212 -244 0
8 -244 -9 0
8 -212 -9 0
-8 212 9 0
-8 244 9 0
-8 212 244 0
9 -213 -245 0
9 -245 -10 0
9 -213 -10 0
-9 213 10 0
-9 245 10 0
-9 213 245 0
10 -214 -246 0
10 -246 -11 0
10 -214 -11 0
-10 214 11 0
-10 246 11 0
-10 214 246 0
11 -215 -247 0
11 -247 -12 0
11 -215 -12 0
-11 215 12 0
-11 247 12 0
-11 215 247 0
12 -216 -248 0
12 -248 -13 0
12 -216 -13 0
-12 216 13 0
-12 248 13 0
-12 216 248 0
13 -217 -249 0
13 -249 -14 0
13 -217 -14 0
-13 217 14 0
-13 249 14 0
-13 217 249 0
14 -218 -250 0
14 -250 -15 0
14 -218 -15 0
-14 218 15 0
-14 250 15 0
-14 218 250 0
15 -219 -251 0
15 -251 -16 0
15 -219 -16 0
-15 219 16 0
-15 251 16 0
-15 219 251 0
16 -220 -252 0
16 -252 -17 0
16 -220 -17 0
-16 220 17 0
-16 252 17 0
-16 220 252 0
17 -221 -253 0
17 -253 -18 0
17 -221 -18 0
-17 221 18 0
-17 253 18 0
-17 221 253 0
18 -222 -254 0
18 -254 -19 0
18 -222 -19 0
-18 222 19 0
-18 254 19 0
-18 222 254 0
19 -223 -255 0
19 -255 -20 0
19 -223 -20 0
-19 223 20 0
-19 255 20 0
-19 223 255 0
20 -224 -256 0
20 -256 -21 0
20 -224 -21 0
-20 224 21 0
-20 256 21 0
-20 224 256 0
21 -225 -257 0
21 -257 -22 0
21 -225 -22 0
-21 225 22 0
-21 257 22 0
-21 225 257 0
22 -226 -258 0
22 -258 -23 0
22 -226 -23 0
-22 226 23 0
-22 258 23 0
-22 226 258 0
23 -227 -259 0
23 -259 -24 0
23 -227 -24 0
-23 227 24 0
-23 259 24 0
-23 227 259 0
24 -228 -260 0
24 -260 -25 0
24 -228 -25 0
-24 228 25 0
-24 260 25 0
-24 228 260 0
25 -229 -261 0
25 -261 -26 0
25 -229 -26 0
-25 229 26 0
-25 261 26 0
-25 229 261 0
26 -230 -262 0
26 -262 -27 0
26 -230 -27 0
-26 230 27 0
-26 262 27 0
-26 230 262 0
27 -231 -263 0
27 -263 -28 0
27 -231 -28 0
-27 231 28 0
-27 263 28 0
-27 231 263 0
28 -232 -264 0
28 -264 -29 0
28 -232 -29 0
-28 232 29 0
-28 264 29 0
-28 232 264 0
29 -233 -265 0
29 -265 -30 0
29 -233 -30 0
-29 233 30 0
-29 265 30 0
-29 233 265 0
30 -234 -266 0
30 -266 -31 0
30 -234 -31 0
-30 234 31 0
-30 266 31 0
-30 234 266 0
31 -235 -267 0
31 -267 -32 0
31 -235 -32 0
-31 235 32 0
-31 267 32 0
-31 235 267 0
32 -236 -268 0
32 -268 -33 0
32 -236 -33 0
-32 268 33 0
-32 236 268 0
-32 236 33 0
-33 237 34 0
-33 269 34 0
-33 237 269 0
33 -237 -269 0
33 -269 -34 0
33 -237 -34 0
34 -238 -270 0
-34 238 0
-34 270 0
-35 -208 -240 0
-35 208 240 0
35 208 -240 0
35 -208 240 0
36 -37 152 0
36 37 -152 0
-36 37 152 0
-36 -37 -152 0
37 -208 -70 0
37 -208 -38 0
37 -38 -70 0
-37 38 70 0
-37 208 70 0
-37 208 38 0
-38 -39 -40 0
-38 39 40 0
38 39 -40 0
38 -39 40 0
39 208 -241 0
39 -208 241 0
-39 -208 -241 0
-39 208 241 0
40 -209 -242 0
40 -242 -41 0
40 -209 -41 0
-40 209 41 0
-40 242 41 0
-40 209 242 0
41 -210 -243 0
41 -243 -42 0
41 -210 -42 0
-41 210 42 0
-41 243 42 0
-41 210 243 0
42 -211 -244 0
42 -244 -43 0
42 -211 -43 0
-42 211 43 0
-42 244 43 0
-42 211 244 0
43 -212 -245 0
43 -245 -44 0
43 -212 -44 0
-43 212 44 0
-43 245 44 0
-43 212 245 0
44 -213 -246 0
44 -246 -45 0
44 -213 -45 0
-44 213 45 0
-44 246 45 0
-44 213 246 0
45 -214 -247 0
45 -247 -46 0
45 -214 -46 0
-45 214 46 0
-45 247 46 0
-45 214 247 0
46 -215 -248 0
46 -248 -47 0
46 -215 -47 0
-46 215 47 0
-46 248 47 0
-46 215 248 0
47 -216 -249 0
47 -249 -48 0
47 -216 -48 0
-47 216 48 0
-47 249 48 0
-47 216 249 0
48 -217 -250 0
48 -250 -49 0
48 -217 -49 0
-48 217 49 0
-48 250 49 0
-48 217 250 0
49 -218 -251 0
49 -251 -50 0
49 -218 -50 0
-49 218 50 0
-49 251 50 0
-49 218 251 0
50 -219 -252 0
50 -252 -51 0
50 -219 -51 0
-50 219 51 0
-50 252 51 0
-50 219 252 0
51 -220 -253 0
51 -253 -52 0
51 -220 -52 0
-51 220 52 0
-51 253 52 0
-51 220 253 0
52 -221 -254 0
52 -254 -53 0
52 -221 -53 0
-52 221 53 0
-52 254 53 0
-52 221 254 0
53 -222 -255 0
53 -255 -54 0
53 -222 -54 0
-53 222 54 0
-53 255 54 0
-53 222 255 0
54 -223 -256 0
54 -256 -55 0
54 -223 -55 0
-54 223 55 0
-54 256 55 0
-54 223 256 0
55 -224 -257 0
55 -257 -56 0
55 -224 -56 0
-55 224 56 0
-55 257 56 0
-55 224 257 0
56 -225 -258 0
56 -258 -57 0
56 -225 -57 0
-56 225 57 0
-56 258 57 0
-56 225 258 0
57 -226 -259 0
57 -259 -58 0
57 -226 -58 0
-57 226 58 0
-57 259 58 0
-57 226 259 0
58 -227 -260 0
58 -260 -59 0
58 -227 -59 0
-58 227 59 0
-58 260 59 0
-58 227 260 0
59 -228 -261 0
59 -261 -60 0
59 -228 -60 0
-59 228 60 0
-59 261 60 0
-59 228 261 0
60 -229 -262 0
60 -262 -61 0
60 -229 -61 0
-60 229 61 0
-60 262 61 0
-60 229 262 0
61 -230 -263 0
61 -263 -62 0
61 -230 -62 0
-61 230 62 0
-61 263 62 0
-61 230 263 0
62 -231 -264 0
62 -264 -63 0
62 -231 -63 0
-62 231 63 0
-62 264 63 0
-62 231 264 0
63 -232 -265 0
63 -265 -64 0
63 -232 -64 0
-63 232 64 0
-63 265 64 0
-63 232 265 0
64 -233 -266 0
64 -266 -65 0
64 -233 -65 0
-64 233 65 0
-64 266 65 0
-64 233 266 0
65 -234 -267 0
65 -267 -66 0
65 -234 -66 0
-65 234 66 0
-65 267 66 0
-65 234 267 0
66 -235 -67 0
66 -268 -67 0
-66 67 0
-66 235 268 0
-67 268 68 0
-67 235 68 0
67 -68 0
67 -235 -268 0
-68 236 69 0
-68 269 69 0
-68 236 269 0
68 -236 -269 0
68 -269 -69 0
68 -236 -69 0
69 -237 -270 0
-69 237 0
-69 270 0
70 -209 -73 0
70 -209 -71 0
70 -71 -73 0
-70 71 73 0
-70 209 73 0
-70 209 71 0
-71 -41 -72 0
-71 41 72 0
71 41 -72 0
71 -41 72 0
72 209 -242 0
72 -209 242 0
-72 -209 -242 0
-72 209 242 0
73 -210 -76 0
73 -210 -74 0
73 -74 -76 0
-73 74 76 0
-73 210 76 0
-73 210 74 0
-74 -42 -75 0
-74 42 75 0
74 42 -75 0
74 -42 75 0
75 210 -243 0
75 -210 243 0
-75 -210 -243 0
-75 210 243 0
76 -211 -79 0
76 -211 -77 0
76 -77 -79 0
-76 77 79 0
-76 211 79 0
-76 211 77 0
-77 -43 -78 0
-77 43 78 0
77 43 -78 0
77 -43 78 0
78 211 -244 0
78 -211 244 0
-78 -211 -244 0
-78 211 244 0
79 -212 -82 0
79 -212 -80 0
79 -80 -82 0
-79 80 82 0
-79 212 82 0
-79 212 80 0
-80 -44 -81 0
-80 44 81 0
80 44 -81 0
80 -44 81 0
81 212 -245 0
81 -212 245 0
-81 -212 -245 0
-81 212 245 0
82 -213 -85 0
82 -213 -83 0
82 -83 -85 0
-82 83 85 0
-82 213 85 0
-82 213 83 0
-83 -45 -84 0
-83 45 84 0
83 45 -84 0
83 -45 84 0
84 213 -246 0
84 -213 246 0
-84 -213 -246 0
-84 213 246 0
85 -214 -88 0
85 -214 -86 0
85 -86 -88 0
-85 86 88 0
-85 214 88 0
-85 214 86 0
-86 -46 -87 0
-86 46 87 0
86 46 -87 0
86 -46 87 0
87 214 -247 0
87 -214 247 0
-87 -214 -247 0
-87 214 247 0
88 -215 -91 0
88 -215 -89 0
88 -89 -91 0
-88 89 91 0
-88 215 91 0
-88 215 89 0
-89 -47 -90 0
-89 47 90 0
89 47 -90 0
89 -47 90 0
90 215 -248 0
90 -215 248 0
-90 -215 -248 0
-90 215 248 0
91 -216 -94 0
91 -216 -92 0
91 -92 -94 0
-91 92 94 0
-91 216 94 0
-91 216 92 0
-92 -48 -93 0
-92 48 93 0
92 48 -93 0
92 -48 93 0
93 216 -249 0
93 -216 249 0
-93 -216 -249 0
-93 216 249 0
94 -217 -97 0
94 -217 -95 0
94 -95 -97 0
-94 95 97 0
-94 217 97 0
-94 217 95 0
-95 -49 -96 0
-95 49 96 0
95 49 -96 0
95 -49 96 0
96 217 -250 0
96 -217 250 0
-96 -217 -250 0
-96 217 250 0
97 -218 -100 0
97 -218 -98 0
97 -98 -100 0
-97 98 100 0
-97 218 100 0
-97 218 98 0
-98 -50 -99 0
-98 50 99 0
98 50 -99 0
98 -50 99 0
99 218 -251 0
99 -218 251 0
-99 -218 -251 0
-99 218 251 0
100 -219 -103 0
100 -219 -101 0
100 -101 -103 0
-100 101 103 0
-100 219 103 0
-100 219 101 0
-101 -51 -102 0
-101 51 102 0
101 51 -102 0
101 -51 102 0
102 219 -252 0
102 -219 252 0
-102 -219 -252 0
-102 219 252 0
103 -220 -106 0
103 -220 -104 0
103 -104 -106 0
-103 104 106 0
-103 220 106 0
-103 220 104 0
-104 -52 -105 0
-104 52 105 0
104 52 -105 0
104 -52 105 0
105 220 -253 0
105 -220 253 0
-105 -220 -253 0
-105 220 253 0
106 -221 -109 0
106 -221 -107 0
106 -107 -109 0
-106 107 109 0
-106 221 109 0
-106 221 107 0
-107 -53 -108 0
-107 53 108 0
107 53 -108 0
107 -53 108 0
108 221 -254 0
108 -221 254 0
-108 -221 -254 0
-108 221 254 0
109 -222 -112 0
109 -222 -110 0
109 -110 -112 0
-109 110 112 0
-109 222 112 0
-109 222 110 0
-110 -54 -111 0
-110 54 111 0
110 54 -111 0
110 -54 111 0
111 222 -255 0
111 -222 255 0
-111 -222 -255 0
-111 222 255 0
112 -223 -115 0
112 -223 -113 0
112 -113 -115 0
-112 113 115 0
-112 223 115 0
-112 223 113 0
-113 -55 -114 0
-113 55 114 0
113 55 -114 0
113 -55 114 0
114 223 -256 0
114 -223 256 0
-114 -223 -256 0
-114 223 256 0
115 -224 -118 0
115 -224 -116 0
115 -116 -118 0
-115 116 118 0
-115 224 118 0
-115 224 116 0
-116 -56 -117 0
-116 56 117 0
116 56 -117 0
116 -56 117 0
117 224 -257 0
117 -224 257 0
-117 -224 -257 0
-117 224 257 0
118 -225 -121 0
118 -225 -119 0
118 -119 -121 0
-118 119 121 0
-118 225 121 0
-118 225 119 0
-119 -57 -120 0
-119 57 120 0
119 57 -120 0
119 -57 120 0
120 225 -258 0
120 -225 258 0
-120 -225 -258 0
-120 225 258 0
121 -226 -124 0
121 -226 -122 0
121 -122 -124 0
-121 122 124 0
-121 226 124 0
-121 226 122 0
-122 -58 -123 0
-122 58 123 0
122 58 -123 0
122 -58 123 0
123 226 -259 0
123 -226 259 0
-123 -226 -259 0
-123 226 259 0
124 -227 -127 0
124 -227 -125 0
124 -125 -127 0
-124 125 127 0
-124 227 127 0
-124 227 125 0
-125 -59 -126 0
-125 59 126 0
125 59 -126 0
125 -59 126 0
126 227 -260 0
126 -227 260 0
-126 -227 -260 0
-126 227 260 0
127 -228 -130 0
127 -228 -128 0
127 -128 -130 0
-127 128 130 0
-127 228 130 0
-127 228 128 0
-128 -60 -129 0
-128 60 129 0
128 60 -129 0
128 -60 129 0
129 228 -261 0
129 -228 261 0
-129 -228 -261 0
-129 228 261 0
130 -229 -133 0
130 -229 -131 0
130 -131 -133 0
-130 131 133 0
-130 229 133 0
-130 229 131 0
-131 -61 -132 0
-131 61 132 0
131 61 -132 0
131 -61 132 0
132 229 -262 0
132 -229 262 0
-132 -229 -262 0
-132 229 262 0
133 -230 -136 0
133 -230 -134 0
133 -134 -136 0
-133 134 136 0
-133 230 136 0
-133 230 134 0
-134 -62 -135 0
-134 62 135 0
134 62 -135 0
134 -62 135 0
135 230 -263 0
135 -230 263 0
-135 -230 -263 0
-135 230 263 0
136 -231 -139 0
136 -231 -137 0
136 -137 -139 0
-136 137 139 0
-136 231 139 0
-136 231 137 0
-137 -63 -138 0
-137 63 138 0
137 63 -138 0
137 -63 138 0
138 231 -264 0
138 -231 264 0
-138 -231 -264 0
-138 231 264 0
139 -232 -142 0
139 -232 -140 0
139 -140 -142 0
-139 140 142 0
-139 232 142 0
-139 232 140 0
-140 -64 -141 0
-140 64 141 0
140 64 -141 0
140 -64 141 0
141 232 -265 0
141 -232 265 0
-141 -232 -265 0
-141 232 265 0
142 -233 -143 0
142 -143 -145 0
142 -233 -145 0
-142 233 145 0
-142 143 145 0
-142 233 143 0
143 65 -144 0
143 -65 144 0
-143 -65 -144 0
-143 65 144 0
144 233 -266 0
144 -233 266 0
-144 -233 -266 0
-144 233 266 0
145 -234 -146 0
145 -146 -148 0
145 -234 -148 0
-145 234 148 0
-145 146 148 0
-145 234 146 0
146 66 -147 0
146 -66 147 0
-146 -66 -147 0
-146 66 147 0
147 234 -267 0
147 -234 267 0
-147 -234 -267 0
-147 234 267 0
148 268 -68 -149 0
148 -235 -268 -68 0
148 -235 268 68 0
148 -268 68 -149 0
-148 235 -268 -68 0
-148 -268 68 149 0
-148 268 -68 149 0
-148 235 268 68 0
-149 -150 151 0
-149 236 150 0
149 -150 -151 0
149 -236 150 0
150 269 -69 0
150 -269 69 0
-150 -269 -69 0
-150 269 69 0
-151 237 270 0
-151 238 -270 0
151 -238 -270 0
151 -237 270 0
-152 -240 -153 0
-152 240 153 0
152 240 -153 0
152 -240 153 0
153 -208 -241 0
153 -241 -40 0
153 -208 -40 0
-153 208 40 0
-153 241 40 0
-153 208 241 0
154 70 -155 0
154 -70 155 0
-154 -70 -155 0
-154 70 155 0
155 241 -40 0
155 -241 40 0
-155 -241 -40 0
-155 241 40 0
-156 -6 -157 0
-156 6 157 0
156 6 -157 0
156 -6 157 0
157 209 -241 0
157 -209 241 0
-157 -209 -241 0
-157 209 241 0
-158 -159 -161 163 168 0
-158 159 161 163 168 0
158 -168 0
158 159 -161 0
158 -163 0
158 -159 161 0
159 73 -160 0
159 -73 160 0
-159 -73 -160 0
-159 73 160 0
160 242 -41 0
160 -242 41 0
-160 -242 -41 0
-160 242 41 0
-161 -7 -162 0
-161 7 162 0
161 7 -162 0
161 -7 162 0
162 210 -242 0
162 -210 242 0
-162 -210 -242 0
-162 210 242 0
163 -164 166 0
163 164 -166 0
-163 164 166 0
-163 -164 -166 0
164 76 -165 0
164 -76 165 0
-164 -76 -165 0
-164 76 165 0
165 243 -42 0
165 -243 42 0
-165 -243 -42 0
-165 243 42 0
-166 -8 -167 0
-166 8 167 0
166 8 -167 0
166 -8 167 0
167 211 -243 0
167 -211 243 0
-167 -211 -243 0
-167 211 243 0
-168 -169 -171 173 178 0
-168 169 171 173 178 0
168 -178 0
168 169 -171 0
168 -173 0
168 -169 171 0
169 79 -170 0
169 -79 170 0
-169 -79 -170 0
-169 79 170 0
170 244 -43 0
170 -244 43 0
-170 -244 -43 0
-170 244 43 0
-171 -9 -172 0
-171 9 172 0
171 9 -172 0
171 -9 172 0
172 212 -244 0
172 -212 244 0
-172 -212 -244 0
-172 212 244 0
173 -174 176 0
173 174 -176 0
-173 174 176 0
-173 -174 -176 0
174 82 -175 0
174 -82 175 0
-174 -82 -175 0
-174 82 175 0
175 245 -44 0
175 -245 44 0
-175 -245 -44 0
-175 245 44 0
-176 -10 -177 0
-176 10 177 0
176 10 -177 0
176 -10 177 0
177 213 -245 0
177 -213 245 0
-177 -213 -245 0
-177 213 245 0
-178 -179 -181 183 188 0
-178 179 181 183 188 0
178 -188 0
178 179 -181 0
178 -183 0
178 -179 181 0
179 85 -180 0
179 -85 180 0
-179 -85 -180 0
-179 85 180 0
180 246 -45 0
180 -246 45 0
-180 -246 -45 0
-180 246 45 0
-181 -11 -182 0
-181 11 182 0
181 11 -182 0
181 -11 182 0
182 214 -246 0
182 -214 246 0
-182 -214 -246 0
-182 214 246 0
183 -184 186 0
183 184 -186 0
-183 184 186 0
-183 -184 -186 0
184 88 -185 0
184 -88 185 0
-184 -88 -185 0
-184 88 185 0
185 247 -46 0
185 -247 46 0
-185 -247 -46 0
-185 247 46 0
-186 -12 -187 0
-186 12 187 0
186 12 -187 0
186 -12 187 0
187 215 -247 0
187 -215 247 0
-187 -215 -247 0
-187 215 247 0
-188 -189 -191 193 198 0
-188 189 191 193 198 0
188 -198 0
188 189 -191 0
188 -193 0
188 -189 191 0
189 91 -190 0
189 -91 190 0
-189 -91 -190 0
-189 91 190 0
190 248 -47 0
190 -248 47 0
-190 -248 -47 0
-190 248 47 0
-191 -13 -192 0
-191 13 192 0
191 13 -192 0
191 -13 192 0
192 216 -248 0
192 -216 248 0
-192 -216 -248 0
-192 216 248 0
193 -194 196 0
193 194 -196 0
-193 194 196 0
-193 -194 -196 0
194 94 -195 0
194 -94 195 0
-194 -94 -195 0
-194 94 195 0
195 249 -48 0
195 -249 48 0
-195 -249 -48 0
-195 249 48 0
-196 -14 -197 0
-196 14 197 0
196 14 -197 0
196 -14 197 0
197 217 -249 0
197 -217 249 0
-197 -217 -249 0
-197 217 249 0
-198 -199 -201 -203 -205 0
-198 199 201 203 205 0
-198 -199 -201 203 205 0
-198 199 201 -203 -205 0
198 -199 201 0
198 199 -201 0
198 203 -205 0
198 -203 205 0
199 106 -200 0
199 -106 200 0
-199 -106 -200 0
-199 106 200 0
200 253 -52 0
200 -253 52 0
-200 -253 -52 0
-200 253 52 0
-201 -18 -202 0
-201 18 202 0
201 18 -202 0
201 -18 202 0
202 221 -253 0
202 -221 253 0
-202 -221 -253 0
-202 221 253 0
203 109 -204 0
203 -109 204 0
-203 -109 -204 0
-203 109 204 0
204 254 -53 0
204 -254 53 0
-204 -254 -53 0
-204 254 53 0
-205 -19 -206 0
-205 19 206 0
205 19 -206 0
205 -19 206 0
206 222 -254 0
206 -222 254 0
-206 -222 -254 0
-206 222 254 0
-271 0
2 0

